(set-logic QF_UF)
(declare-fun A0 () Bool)
(declare-fun A1 () Bool)
(declare-fun A2 () Bool)
(declare-fun A3 () Bool)
(declare-fun A4 () Bool)
(declare-fun A5 () Bool)
(declare-fun A6 () Bool)
(declare-fun A8 () Bool)
(declare-fun A9 () Bool)
(declare-fun A10 () Bool)
(declare-fun A11 () Bool)
(declare-fun A12 () Bool)
(declare-fun A13 () Bool)
(declare-fun A14 () Bool)
(declare-fun A15 () Bool)
(declare-fun A16 () Bool)
(declare-fun A17 () Bool)
(declare-fun A18 () Bool)
(declare-fun A19 () Bool)
(declare-fun A20 () Bool)
(declare-fun A21 () Bool)
(declare-fun A22 () Bool)
(declare-fun A23 () Bool)
(declare-fun A24 () Bool)
(assert (let ((.def_0 (not A11))) (let ((.def_1 (and .def_0 A24))) (let ((.def_2 (not .def_1))) (let ((.def_3 (not A9))) (let ((.def_4 (and A8 .def_3))) (let ((.def_5 (and .def_4 .def_2))) (let ((.def_6 (not A22))) (let ((.def_7 (or A20 .def_6))) (let ((.def_8 (not .def_7))) (let ((.def_9 (not A20))) (let ((.def_10 (not A16))) (let ((.def_11 (or .def_10 .def_9))) (let ((.def_12 (not .def_11))) (let ((.def_13 (or .def_12 .def_8))) (let ((.def_14 (or .def_13 .def_5))) (let ((.def_15 (not .def_14))) (let ((.def_16 (and A1 A8))) (let ((.def_17 (not .def_16))) (let ((.def_18 (= A4 A6))) (let ((.def_19 (or .def_18 .def_17))) (let ((.def_20 (not A12))) (let ((.def_21 (not A18))) (let ((.def_22 (and .def_21 .def_20))) (let ((.def_23 (not .def_22))) (let ((.def_24 (not A24))) (let ((.def_25 (and A14 .def_24))) (let ((.def_26 (and .def_25 .def_23))) (let ((.def_27 (not .def_26))) (let ((.def_28 (or .def_27 .def_19))) (let ((.def_29 (or .def_28 .def_15))) (let ((.def_30 (not A6))) (let ((.def_31 (or A8 .def_30))) (let ((.def_32 (not A5))) (let ((.def_33 (and A19 .def_32))) (let ((.def_34 (not .def_33))) (let ((.def_35 (or .def_34 .def_31))) (let ((.def_36 (not A3))) (let ((.def_37 (= .def_36 A13))) (let ((.def_38 (not .def_37))) (let ((.def_39 (not A15))) (let ((.def_40 (not A17))) (let ((.def_41 (or .def_40 .def_39))) (let ((.def_42 (not .def_41))) (let ((.def_43 (and .def_42 .def_38))) (let ((.def_44 (not .def_43))) (let ((.def_45 (and .def_44 .def_35))) (let ((.def_46 (not .def_45))) (let ((.def_47 (or A10 A18))) (let ((.def_48 (not .def_47))) (let ((.def_49 (and .def_20 A8))) (let ((.def_50 (and .def_49 .def_48))) (let ((.def_51 (not A19))) (let ((.def_52 (and .def_51 A0))) (let ((.def_53 (or .def_10 A18))) (let ((.def_54 (not .def_53))) (let ((.def_55 (and .def_54 .def_52))) (let ((.def_56 (= .def_55 .def_50))) (let ((.def_57 (and .def_56 .def_46))) (let ((.def_58 (and .def_57 .def_29))) (let ((.def_59 (= A21 .def_51))) (let ((.def_60 (not .def_59))) (let ((.def_61 (and A2 A17))) (let ((.def_62 (not .def_61))) (let ((.def_63 (= .def_62 .def_60))) (let ((.def_64 (not .def_63))) (let ((.def_65 (or A5 A1))) (let ((.def_66 (not .def_65))) (let ((.def_67 (and A22 A21))) (let ((.def_68 (not .def_67))) (let ((.def_69 (and .def_68 .def_66))) (let ((.def_70 (or .def_69 .def_64))) (let ((.def_71 (not .def_70))) (let ((.def_72 (or A24 .def_36))) (let ((.def_73 (not .def_72))) (let ((.def_74 (or .def_0 A21))) (let ((.def_75 (not .def_74))) (let ((.def_76 (or .def_75 .def_73))) (let ((.def_77 (not A21))) (let ((.def_78 (= .def_77 A13))) (let ((.def_79 (not .def_78))) (let ((.def_80 (and .def_9 A20))) (let ((.def_81 (and .def_80 .def_79))) (let ((.def_82 (not .def_81))) (let ((.def_83 (and .def_82 .def_76))) (let ((.def_84 (not .def_83))) (let ((.def_85 (or .def_84 .def_71))) (let ((.def_86 (and A9 A19))) (let ((.def_87 (or A6 A2))) (let ((.def_88 (not .def_87))) (let ((.def_89 (and .def_88 .def_86))) (let ((.def_90 (not .def_89))) (let ((.def_91 (and A22 .def_10))) (let ((.def_92 (not .def_91))) (let ((.def_93 (not A23))) (let ((.def_94 (or .def_93 A1))) (let ((.def_95 (and .def_94 .def_92))) (let ((.def_96 (and .def_95 .def_90))) (let ((.def_97 (not A13))) (let ((.def_98 (or .def_97 A16))) (let ((.def_99 (and .def_51 A12))) (let ((.def_100 (and .def_99 .def_98))) (let ((.def_101 (not .def_100))) (let ((.def_102 (and .def_39 A13))) (let ((.def_103 (not .def_102))) (let ((.def_104 (or A24 A1))) (let ((.def_105 (and .def_104 .def_103))) (let ((.def_106 (and .def_105 .def_101))) (let ((.def_107 (or .def_106 .def_96))) (let ((.def_108 (and .def_107 .def_85))) (let ((.def_109 (not .def_108))) (let ((.def_110 (and .def_109 .def_58))) (let ((.def_111 (not .def_110))) .def_111)))))))))))))))))))))))))))))))))))))))))))))))))))))))))))))))))))))))))))))))))))))))))))))))))))))))))))))))))
(check-sat)
